&CONTROL
calculation='SP',
method='RHF'
/

&SYSTEM
nat=96,
tot_charge=1,
basis='STO-3G'
/

ATOMIC_POSITIONS (bohr)
H +1.430550712515632 +0.0000000000000000 +0.0000000000000000
H -1.430550712515632 +0.0000000000000000 +0.0000000000000000
O +0.000000000000000 +1.1072508390340239 +0.0000000000000000